; PUSH 0x00 DUP2 GT ISZERO => DUP1 ISZERO
(set-option :produce-proofs true)
; 
(set-info :status unknown)
(declare-fun storage_t ((_ BitVec 256) Int (_ BitVec 256)) (_ BitVec 256))
(declare-fun storage_s ((_ BitVec 256) Int (_ BitVec 256)) (_ BitVec 256))
(declare-fun exc_halt_t (Int) Bool)
(declare-fun exc_halt_s (Int) Bool)
(declare-fun stack_t ((_ BitVec 256) Int (_ BitVec 6)) (_ BitVec 256))
(declare-fun stack_s ((_ BitVec 256) Int (_ BitVec 6)) (_ BitVec 256))
(declare-fun sc_t (Int) (_ BitVec 6))
(declare-fun sc_s (Int) (_ BitVec 6))
(declare-fun used_gas_t ((_ BitVec 256) Int) Int)
(declare-fun used_gas_s ((_ BitVec 256) Int) Int)
(assert
 (exists ((x_0 (_ BitVec 256)) )(let (($x6706 (forall ((w (_ BitVec 256)) )(let ((?x4235 (storage_t x_0 2 w)))
 (let ((?x3977 (storage_s x_0 4 w)))
 (= ?x3977 ?x4235))))
 ))
 (let (($x2620 (exc_halt_t 2)))
 (let (($x9175 (exc_halt_s 4)))
 (let (($x6825 (= $x9175 $x2620)))
 (let (($x10811 (forall ((n (_ BitVec 6)) )(let ((?x5233 (stack_t x_0 2 n)))
 (let ((?x3093 (stack_s x_0 4 n)))
 (let (($x7988 (= ?x3093 ?x5233)))
 (or (bvsle (sc_t 2) n) $x7988)))))
 ))
 (let ((?x4617 (sc_t 2)))
 (let ((?x9433 (sc_s 4)))
 (let (($x4825 (= ?x9433 ?x4617)))
 (let ((?x4621 (used_gas_t x_0 0)))
 (let ((?x7927 (used_gas_s x_0 0)))
 (let (($x10181 (= ?x7927 ?x4621)))
 (let (($x3960 (forall ((w (_ BitVec 256)) )(let ((?x8100 (storage_t x_0 0 w)))
 (let ((?x11804 (storage_s x_0 0 w)))
 (= ?x11804 ?x8100))))
 ))
 (let (($x56 (exc_halt_t 0)))
 (let (($x57 (exc_halt_s 0)))
 (let (($x58 (= $x57 $x56)))
 (let (($x937 (forall ((n (_ BitVec 6)) )(let ((?x7179 (stack_t x_0 0 n)))
 (let ((?x5586 (stack_s x_0 0 n)))
 (let (($x9773 (= ?x5586 ?x7179)))
 (let ((?x63 (sc_t 0)))
 (let (($x5163 (bvsle ?x63 n)))
 (or $x5163 $x9773)))))))
 ))
 (let ((?x63 (sc_t 0)))
 (let ((?x72 (sc_s 0)))
 (let (($x73 (= ?x72 ?x63)))
 (let (($x4673 (= $x2620 (or (exc_halt_t 1) (not (bvsle (_ bv0 6) (bvadd (_ bv63 6) (sc_t 1))))))))
 (let (($x10385 (forall ((w (_ BitVec 256)) )(let ((?x4709 (storage_t x_0 1 w)))
 (let ((?x4235 (storage_t x_0 2 w)))
 (= ?x4235 ?x4709))))
 ))
 (let (($x5832 (forall ((n (_ BitVec 6)) )(or (= (stack_t x_0 2 n) (stack_t x_0 1 n)) (bvsle (bvadd (_ bv63 6) (sc_t 1)) n)))
 ))
 (let ((?x9296 (ite (= (stack_t x_0 1 (bvadd (_ bv63 6) (sc_t 1))) (_ bv0 256)) (_ bv1 256) (_ bv0 256))))
 (let (($x11442 (or $x56 (not (bvsle (_ bv0 6) (bvadd (_ bv63 6) ?x63))) (not (= ((_ extract 6 6) (bvadd (_ bv1 7) (concat (_ bv0 1) ?x63))) (_ bv0 1))))))
 (let (($x8390 (exc_halt_t 1)))
 (let (($x9297 (forall ((w (_ BitVec 256)) )(let ((?x8100 (storage_t x_0 0 w)))
 (let ((?x4709 (storage_t x_0 1 w)))
 (= ?x4709 ?x8100))))
 ))
 (let (($x1363 (forall ((n (_ BitVec 6)) )(or (bvsle (bvadd (_ bv63 6) (sc_t 0)) n) (= (stack_t x_0 1 n) (stack_t x_0 0 n))))
 ))
 (let ((?x8237 (bvadd (_ bv63 6) ?x63)))
 (let ((?x1428 (stack_t x_0 0 ?x8237)))
 (let (($x4742 (= $x9175 (or (exc_halt_s 3) (not (bvsle (_ bv0 6) (bvadd (_ bv63 6) (sc_s 3))))))))
 (let (($x8563 (forall ((w (_ BitVec 256)) )(let ((?x2193 (storage_s x_0 3 w)))
 (let ((?x3977 (storage_s x_0 4 w)))
 (= ?x3977 ?x2193))))
 ))
 (let (($x766 (forall ((n (_ BitVec 6)) )(or (bvsle (bvadd (_ bv63 6) (sc_s 3)) n) (= (stack_s x_0 4 n) (stack_s x_0 3 n))))
 ))
 (let ((?x3851 (sc_s 3)))
 (let (($x1520 (= ?x9433 ?x3851)))
 (let (($x11004 (= (stack_s x_0 4 (bvadd (_ bv63 6) ?x9433)) (ite (= (stack_s x_0 3 (bvadd (_ bv63 6) ?x3851)) (_ bv0 256)) (_ bv1 256) (_ bv0 256)))))
 (let (($x8103 (exc_halt_s 3)))
 (let (($x3778 (= $x8103 (or (exc_halt_s 2) (not (bvsle (_ bv0 6) (bvadd (_ bv62 6) (sc_s 2))))))))
 (let (($x3669 (forall ((w (_ BitVec 256)) )(let ((?x1009 (storage_s x_0 2 w)))
 (let ((?x2193 (storage_s x_0 3 w)))
 (= ?x2193 ?x1009))))
 ))
 (let (($x4184 (forall ((n (_ BitVec 6)) )(let ((?x2272 (sc_s 2)))
 (let ((?x3112 (bvadd (_ bv62 6) ?x2272)))
 (let (($x8329 (bvsle ?x3112 n)))
 (or (= (stack_s x_0 3 n) (stack_s x_0 2 n)) $x8329)))))
 ))
 (let ((?x2272 (sc_s 2)))
 (let ((?x5543 (bvadd (_ bv63 6) ?x2272)))
 (let (($x2260 (= ?x3851 ?x5543)))
 (let ((?x1404 (stack_s x_0 2 ?x5543)))
 (let ((?x8535 (bvadd (_ bv63 6) ?x3851)))
 (let ((?x9298 (stack_s x_0 3 ?x8535)))
 (let (($x9420 (= ?x9298 (ite (bvule ?x1404 (stack_s x_0 2 (bvadd (_ bv62 6) ?x2272))) (_ bv0 256) (_ bv1 256)))))
 (let (($x8780 (exc_halt_s 1)))
 (let (($x8015 (not (= ((_ extract 6 6) (bvadd (_ bv1 7) (concat (_ bv0 1) (sc_s 1)))) (_ bv0 1)))))
 (let (($x4536 (not (bvsle (_ bv0 6) (bvadd (_ bv62 6) (sc_s 1))))))
 (let (($x10052 (exc_halt_s 2)))
 (let (($x4476 (forall ((w (_ BitVec 256)) )(let ((?x11451 (storage_s x_0 1 w)))
 (let ((?x1009 (storage_s x_0 2 w)))
 (= ?x1009 ?x11451))))
 ))
 (let (($x6390 (forall ((n (_ BitVec 6)) )(let ((?x154 (sc_s 1)))
 (let ((?x11274 (bvadd (_ bv62 6) ?x154)))
 (let (($x11690 (bvsle ?x11274 n)))
 (or (= (stack_s x_0 2 n) (stack_s x_0 1 n)) $x11690)))))
 ))
 (let (($x1606 (= ?x2272 (bvadd (_ bv1 6) (sc_s 1)))))
 (let (($x4068 (= (stack_s x_0 2 (bvadd (_ bv63 6) (sc_s 1))) (stack_s x_0 1 (bvadd (_ bv63 6) (sc_s 1))))))
 (let ((?x154 (sc_s 1)))
 (let ((?x11274 (bvadd (_ bv62 6) ?x154)))
 (let ((?x397 (stack_s x_0 1 ?x11274)))
 (let (($x6093 (= $x8780 (or $x57 (not (= ((_ extract 6 6) (bvadd (_ bv1 7) (concat (_ bv0 1) ?x72))) (_ bv0 1)))))))
 (let (($x5467 (forall ((w (_ BitVec 256)) )(let ((?x11804 (storage_s x_0 0 w)))
 (let ((?x11451 (storage_s x_0 1 w)))
 (= ?x11451 ?x11804))))
 ))
 (let (($x7082 (forall ((n (_ BitVec 6)) )(let ((?x72 (sc_s 0)))
 (let (($x834 (bvsle ?x72 n)))
 (or $x834 (= (stack_s x_0 1 n) (stack_s x_0 0 n))))))
 ))
 (let (($x185 (= ?x154 (bvadd (_ bv1 6) ?x72))))
 (let (($x1816 (forall ((w (_ BitVec 256)) )(let ((?x11804 (storage_s x_0 0 w)))
 (= ?x11804 (_ bv0 256))))
 ))
 (let (($x3746 (= ?x7927 0)))
 (let (($x5099 (not $x57)))
 (let (($x821 (= (stack_s x_0 0 (_ bv0 6)) x_0)))
 (let (($x8601 (= ?x72 (_ bv1 6))))
 (and $x8601 $x821 $x5099 $x3746 $x1816 (= (stack_s x_0 1 ?x72) (_ bv0 256)) (= (used_gas_s x_0 1) (+ 3 ?x7927)) $x185 $x7082 $x5467 $x6093 (= ?x1404 ?x397) (= (stack_s x_0 2 ?x11274) ?x397) $x4068 (= (used_gas_s x_0 2) (+ 3 (used_gas_s x_0 1))) $x1606 $x6390 $x4476 (= $x10052 (or $x4536 $x8015 $x8780)) $x9420 (= (used_gas_s x_0 3) (+ 3 (used_gas_s x_0 2))) $x2260 $x4184 $x3669 $x3778 $x11004 (= (used_gas_s x_0 4) (+ 3 (used_gas_s x_0 3))) $x1520 $x766 $x8563 $x4742 (= (stack_t x_0 1 (bvadd (_ bv63 6) (sc_t 1))) ?x1428) (= (stack_t x_0 1 ?x8237) ?x1428) (= (used_gas_t x_0 1) (+ 3 ?x4621)) (= (sc_t 1) (bvadd (_ bv1 6) ?x63)) $x1363 $x9297 (= $x8390 $x11442) (= (stack_t x_0 2 (bvadd (_ bv63 6) ?x4617)) ?x9296) (= (used_gas_t x_0 2) (+ 3 (used_gas_t x_0 1))) (= ?x4617 (sc_t 1)) $x5832 $x10385 $x4673 $x73 $x937 $x58 $x3960 $x10181 (not (and $x4825 $x10811 $x6825 $x6706))))))))))))))))))))))))))))))))))))))))))))))))))))))))))))))))))))))
 )
(check-sat)
(get-proof)
